(declare-const d Int)
(declare-const |c'| Int)
(declare-const f Int)
(declare-const e Int)
(declare-const b Int)
(declare-const K Int)
(declare-const term_to_project_onto_integralized Int)
(declare-const term_to_project_onto1_integralized Int)
(declare-const |d'0| Int)
(declare-const term_to_project_onto0_integralized Int)
(declare-const term_to_project_onto3_integralized Int)
(declare-const |f'0| Int)
(declare-const |e'0| Int)
(declare-const |e'| Int)
(declare-const |d'| Int)
(declare-const |b'| Int)
(declare-const |f'| Int)
(declare-const |c'0| Int)
(declare-const term_to_project_onto2_integralized Int)
(declare-const c Int)
(assert (and (<= (+ (- f) 1) 0) (<= (+ (- e) 1) 0) (<= (+ (- d) 1) 0)
               (<= (+ (- c) 1) 0) (<= (- b) 0) (<= (+ b -5) 0)
               (= (+ (- |c'0|) K) 0) (<= (+ |f'0| (* -5 K) (- f)) 0)
               (<= (+ |e'0| (* -5 K) (- e)) 0)
               (<= (+ |d'0| (* -5 K) (- d)) 0)
               (or (and (= K 0) (= (+ (- |f'0|) f) 0) (= (+ (- |e'0|) e) 0)
                          (= (+ (- |d'0|) d) 0) (= (- |c'0|) 0))
                     (and (<= (+ (- K) 1) 0) (<= (+ (- f) 1) 0)
                            (<= (+ (- e) 1) 0) (<= (+ (- d) 1) 0)
                            (= (+ |d'0| -6) 0) (= (+ |e'0| -6) 0)
                            (= (+ |f'0| -6) 0) (<= (+ |c'0| -6) 0)
                            (<= (+ (- |c'0|) 1) 0))) (<= (- K) 0)
               (<= (+ (- |f'0|) 1) 0) (<= (+ (- |e'0|) 1) 0)
               (<= (+ (- |d'0|) 1) 0) (<= (- |c'0|) 0) (<= (+ (- |c'0|) 6) 0)
               (= (+ |f'| (- |f'0|)) 0) (= (+ |e'| (- |e'0|)) 0)
               (= (+ |d'| (- |d'0|)) 0) (= (+ |c'| (- |c'0|)) 0)
               (= (+ |b'| (- b) -1) 0)
               (= (+ term_to_project_onto3_integralized (- (+ |b'| (- b)))) 0)
               (= (+ term_to_project_onto2_integralized (- (+ |c'| (- c)))) 0)
               (= (+ term_to_project_onto1_integralized (- (+ |d'| (- d)))) 0)
               (= (+ term_to_project_onto0_integralized (- (+ |e'| (- e)))) 0)
               (= (+ term_to_project_onto_integralized (- (+ |f'| (- f)))) 0)))
(check-sat)